10J3M/DAT/10J3MUTX-10.dat
10 3
13.6075 3.6888
25.6979 5.0693
17.2861 4.1577
49.9783 7.0695
29.7977 5.4587
31.5253 5.6147
22.6483 4.759
15.7845 3.973
10.2225 3.1973
5.0488 2.247
11.3087