10J3M/SOL/10J3MUTX-10.sol
solution status: optimal solution found
objective value:                     61.3579240036916
x#2#1                               0.966161888964086 	(obj:0)
x#2#2                              0.0338381110359141 	(obj:0)
x#3#3                                               1 	(obj:0)
x#4#1                               0.134696306142494 	(obj:0)
x#4#2                                0.16415797073074 	(obj:0)
x#4#3                               0.701145723126766 	(obj:0)
x#5#1                                               1 	(obj:0)
x#6#2                                               1 	(obj:0)
x#7#2                                0.91656854163578 	(obj:0)
x#7#3                              0.0834314583642204 	(obj:0)
x#8#3                               0.452353385351121 	(obj:0)
z                                    61.3579240036916 	(obj:1)
